c sample.min
c
p min 9 112
c
n 1 20
n 9 -20
c
a 1 2 0 2 0
a 1 2 0 2 0
a 1 2 0 2 0
a 1 2 0 2 0
a 1 2 0 2 0
a 1 2 0 2 0
a 1 2 0 2 0
a 1 2 0 2 0
a 1 4 0 3 0
a 1 4 0 3 0
a 1 4 0 3 0
a 1 4 0 3 0
a 1 4 0 3 0
a 1 4 0 3 0
a 1 4 0 3 0
a 1 4 0 3 0
a 2 3 0 1 0
a 2 3 0 1 1
a 2 3 0 1 1
a 2 3 0 1 1
a 2 3 0 1 1
a 2 3 0 1 2
a 2 3 0 1 2
a 2 3 0 1 2
a 2 4 0 1 0
a 2 4 0 1 1
a 2 4 0 1 1
a 2 4 0 1 2
a 2 4 0 1 2
a 2 4 0 1 2
a 2 4 0 1 3
a 2 4 0 1 3
a 3 5 2 2 0
a 3 5 2 2 0
a 3 5 2 2 0
a 3 5 2 2 1
a 3 5 2 2 1
a 3 5 2 2 1
a 3 5 2 2 1
a 3 5 2 2 1
a 3 8 0 2 0
a 3 8 0 2 0
a 3 8 0 2 0
a 3 8 0 2 0
a 3 8 0 2 0
a 3 8 0 2 0
a 3 8 0 2 0
a 3 8 0 2 0
a 4 5 0 3 0
a 4 5 0 3 0
a 4 5 0 3 0
a 4 5 0 3 0
a 4 5 0 3 0
a 4 5 0 3 0
a 4 5 0 3 0
a 4 5 0 3 0
a 5 2 0 1 0
a 5 2 0 1 0
a 5 2 0 1 0
a 5 2 0 1 1
a 5 2 0 1 1
a 5 2 0 1 1
a 5 2 0 1 1
a 5 2 0 1 1
a 5 6 0 3 1
a 5 6 0 3 1
a 5 6 0 3 2
a 5 6 0 3 3
a 5 6 0 3 3
a 5 6 0 3 4
a 5 6 0 3 4
a 5 6 0 3 5
a 5 7 0 1 1
a 5 7 0 1 2
a 5 7 0 1 3
a 5 7 0 1 4
a 5 7 0 1 4
a 5 7 0 1 5
a 5 7 0 1 6
a 5 7 0 1 7
a 6 7 0 1 0
a 6 7 0 1 0
a 6 7 0 1 0
a 6 7 0 1 0
a 6 7 0 1 0
a 6 7 0 1 0
a 6 7 0 1 0
a 6 7 0 1 0
a 6 8 4 1 0
a 6 8 4 1 0
a 6 8 4 1 0
a 6 8 4 1 0
a 6 8 4 1 0
a 6 8 4 1 0
a 6 8 4 1 0
a 6 8 4 1 0
a 7 9 0 2 0
a 7 9 0 2 1
a 7 9 0 2 1
a 7 9 0 2 2
a 7 9 0 2 2
a 7 9 0 2 2
a 7 9 0 2 3
a 7 9 0 2 3
a 8 9 0 3 1
a 8 9 0 3 2
a 8 9 0 3 3
a 8 9 0 3 5
a 8 9 0 3 6
a 8 9 0 3 7
a 8 9 0 3 8
a 8 9 0 3 9
c
c eof
